min: c;

c = 3.04322451994071 * u1_t7_h4 + 4.01271408246597 * u1_t7_h5 + 3.88868052738247 * u1_t5_h6 + 3.88868052738247 * u1_t7_h6 + 3.81601827167289 * u1_t5_h7 + 3.81601827167289 * u1_t7_h7 + 3.81601827167289 * u1_t9_h7 + 4.9186506655452 * u1_t5_h8 + 4.9186506655452 * u1_t7_h8 + 4.9186506655452 * u1_t9_h8 + 4.9186506655452 * u1_t10_h8 + 5.20970733596882 * u1_t5_h9 + 5.20970733596882 * u1_t7_h9 + 5.20970733596882 * u1_t9_h9 + 5.20970733596882 * u1_t10_h9 + 5.35228946443725 * u1_t5_h10 + 5.35228946443725 * u1_t7_h10 + 5.35228946443725 * u1_t9_h10 + 5.35228946443725 * u1_t10_h10 + 4.1898527461559 * u1_t5_h11 + 4.1898527461559 * u1_t9_h11 + 4.1898527461559 * u1_t10_h11 + 6.20583434944274 * u1_t4_h12 + 6.20583434944274 * u1_t5_h12 + 6.20583434944274 * u1_t8_h12 + 6.20583434944274 * u1_t9_h12 + 6.20583434944274 * u1_t10_h12 + 4.97622224304291 * u1_t4_h13 + 4.97622224304291 * u1_t8_h13 + 4.97622224304291 * u1_t9_h13 + 4.97622224304291 * u1_t10_h13 + 5.12509898013579 * u1_t4_h14 + 5.12509898013579 * u1_t8_h14 + 5.12509898013579 * u1_t9_h14 + 5.12509898013579 * u1_t10_h14 + 6.22861500637536 * u1_t4_h15 + 6.22861500637536 * u1_t8_h15 + 6.18824080732993 * u1_t4_h16 + 6.18824080732993 * u1_t8_h16 + 6.08060729078843 * u1_t4_h17 + 6.08060729078843 * u1_t8_h17 + 6.10261250325332 * u1_t2_h18 + 6.10261250325332 * u1_t4_h18 + 6.10261250325332 * u1_t6_h18 + 6.10261250325332 * u1_t8_h18 + 5.42220152384648 * u1_t2_h19 + 5.42220152384648 * u1_t3_h19 + 5.42220152384648 * u1_t4_h19 + 5.42220152384648 * u1_t6_h19 + 5.22375785375934 * u1_t1_h20 + 5.22375785375934 * u1_t2_h20 + 5.22375785375934 * u1_t3_h20 + 5.22375785375934 * u1_t4_h20 + 5.22375785375934 * u1_t6_h20 + 4.77935738193128 * u1_t1_h21 + 4.77935738193128 * u1_t2_h21 + 4.77935738193128 * u1_t3_h21 + 6.04164456300984 * u1_t1_h22 + 6.04164456300984 * u1_t2_h22 + 5.49422554405547 * u1_t1_h23 + 5.49422554405547 * u1_t2_h23;
0 <= u1_t1_h20 <= 1;
0 <= u1_t1_h21 <= 1;
0 <= u1_t1_h22 <= 1;
0 <= u1_t1_h23 <= 1;
u1_t1_h20 + u1_t1_h21 + u1_t1_h22 + u1_t1_h23 = 1;
0 <= u1_t2_h18 <= 1;
0 <= u1_t2_h19 <= 1;
0 <= u1_t2_h20 <= 1;
0 <= u1_t2_h21 <= 1;
0 <= u1_t2_h22 <= 1;
0 <= u1_t2_h23 <= 1;
u1_t2_h18 + u1_t2_h19 + u1_t2_h20 + u1_t2_h21 + u1_t2_h22 + u1_t2_h23 = 2;
0 <= u1_t3_h19 <= 1;
0 <= u1_t3_h20 <= 1;
0 <= u1_t3_h21 <= 1;
u1_t3_h19 + u1_t3_h20 + u1_t3_h21 = 1;
0 <= u1_t4_h12 <= 1;
0 <= u1_t4_h13 <= 1;
0 <= u1_t4_h14 <= 1;
0 <= u1_t4_h15 <= 1;
0 <= u1_t4_h16 <= 1;
0 <= u1_t4_h17 <= 1;
0 <= u1_t4_h18 <= 1;
0 <= u1_t4_h19 <= 1;
0 <= u1_t4_h20 <= 1;
u1_t4_h12 + u1_t4_h13 + u1_t4_h14 + u1_t4_h15 + u1_t4_h16 + u1_t4_h17 + u1_t4_h18 + u1_t4_h19 + u1_t4_h20 = 3;
0 <= u1_t5_h6 <= 1;
0 <= u1_t5_h7 <= 1;
0 <= u1_t5_h8 <= 1;
0 <= u1_t5_h9 <= 1;
0 <= u1_t5_h10 <= 1;
0 <= u1_t5_h11 <= 1;
0 <= u1_t5_h12 <= 1;
u1_t5_h6 + u1_t5_h7 + u1_t5_h8 + u1_t5_h9 + u1_t5_h10 + u1_t5_h11 + u1_t5_h12 = 3;
0 <= u1_t6_h18 <= 1;
0 <= u1_t6_h19 <= 1;
0 <= u1_t6_h20 <= 1;
u1_t6_h18 + u1_t6_h19 + u1_t6_h20 = 2;
0 <= u1_t7_h4 <= 1;
0 <= u1_t7_h5 <= 1;
0 <= u1_t7_h6 <= 1;
0 <= u1_t7_h7 <= 1;
0 <= u1_t7_h8 <= 1;
0 <= u1_t7_h9 <= 1;
0 <= u1_t7_h10 <= 1;
u1_t7_h4 + u1_t7_h5 + u1_t7_h6 + u1_t7_h7 + u1_t7_h8 + u1_t7_h9 + u1_t7_h10 = 2;
0 <= u1_t8_h12 <= 1;
0 <= u1_t8_h13 <= 1;
0 <= u1_t8_h14 <= 1;
0 <= u1_t8_h15 <= 1;
0 <= u1_t8_h16 <= 1;
0 <= u1_t8_h17 <= 1;
0 <= u1_t8_h18 <= 1;
u1_t8_h12 + u1_t8_h13 + u1_t8_h14 + u1_t8_h15 + u1_t8_h16 + u1_t8_h17 + u1_t8_h18 = 2;
0 <= u1_t9_h7 <= 1;
0 <= u1_t9_h8 <= 1;
0 <= u1_t9_h9 <= 1;
0 <= u1_t9_h10 <= 1;
0 <= u1_t9_h11 <= 1;
0 <= u1_t9_h12 <= 1;
0 <= u1_t9_h13 <= 1;
0 <= u1_t9_h14 <= 1;
u1_t9_h7 + u1_t9_h8 + u1_t9_h9 + u1_t9_h10 + u1_t9_h11 + u1_t9_h12 + u1_t9_h13 + u1_t9_h14 = 3;
0 <= u1_t10_h8 <= 1;
0 <= u1_t10_h9 <= 1;
0 <= u1_t10_h10 <= 1;
0 <= u1_t10_h11 <= 1;
0 <= u1_t10_h12 <= 1;
0 <= u1_t10_h13 <= 1;
0 <= u1_t10_h14 <= 1;
u1_t10_h8 + u1_t10_h9 + u1_t10_h10 + u1_t10_h11 + u1_t10_h12 + u1_t10_h13 + u1_t10_h14 = 3;
